p cnf 91 377
3 19 23 -51 -68 -91 0
10 21 69 70 -72 -77 0
1 2 3 -32 59 0
1 -42 60 69 -87 0
2 3 24 -32 59 0
2 24 -35 -61 65 0
-2 -5 -6 -65 74 0
-4 52 -61 -63 78 0
7 9 40 -43 45 0
7 -47 -48 55 64 0
10 -21 22 -69 88 0
11 12 -27 -28 57 0
13 58 -73 78 79 0
-18 -19 -47 -48 -64 0
20 -38 41 53 -54 0
-31 58 -73 78 79 0
-5 52 78 82 84 0
7 9 40 -43 46 0
-37 52 -63 82 -84 0
1 45 -60 -87 0
-2 -5 -6 37 0
-2 -5 -65 74 0
3 19 23 -91 0
-3 -16 -23 67 0
-3 -16 -23 -89 0
-3 -16 -50 -68 0
-3 -23 67 91 0
-3 67 85 91 0
4 16 19 51 0
-5 37 62 -63 0
7 9 45 -48 0
7 9 46 -47 0
7 46 -47 64 0
-8 -19 83 -88 0
10 -27 34 -57 0
11 12 -28 -31 0
11 -15 -76 -80 0
11 -31 -73 -76 0
-11 -58 76 80 0
12 -31 -73 -79 0
13 -16 67 -68 0
13 67 85 91 0
13 85 -86 91 0
-14 57 58 -78 0
-16 -19 51 67 0
-17 44 -72 77 0
-18 -19 -54 81 0
19 -28 -33 -80 0
19 39 41 48 0
19 74 75 -76 0
-19 51 67 85 0
20 22 41 53 0
-21 42 69 70 0
23 27 32 34 0
-23 -24 26 -27 0
24 -32 -61 -62 0
-24 -33 35 59 0
25 74 75 -76 0
-31 58 -76 -80 0
50 66 -86 89 0
51 68 -81 -85 0
66 -86 -89 90 0
2 -56 59 -61 0
-3 -23 -89 91 0
-3 -50 -51 -68 0
4 19 -51 -91 0
4 51 81 85 0
-4 -78 82 84 0
-6 -35 36 37 0
8 9 -47 -48 0
8 -46 -47 -48 0
-8 -42 60 83 0
10 -21 -72 -77 0
11 -23 -28 57 0
19 23 -36 -76 0
19 23 -50 68 0
20 -38 41 71 0
20 41 -70 71 0
-23 -25 26 -34 0
29 -31 58 -73 0
57 58 78 -79 0
1 2 56 0
1 8 42 0
1 21 69 0
1 56 -62 0
1 69 -87 0
-1 8 -70 0
-1 8 -88 0
-1 24 62 0
2 56 61 0
3 -16 51 0
3 50 66 0
-3 50 67 0
4 -5 -82 0
4 -73 -78 0
5 -33 -82 0
6 -36 -37 0
-6 61 62 0
7 55 60 0
7 55 64 0
-7 -8 -45 0
-8 10 88 0
-8 45 48 0
-9 -40 43 0
10 -34 57 0
-10 -26 28 0
-11 -14 -15 0
12 13 57 0
12 13 -73 0
12 -19 79 0
12 -19 85 0
-12 -14 78 0
-12 -78 -79 0
13 49 91 0
13 67 -68 0
-13 -19 68 0
-13 -49 90 0
14 -19 -79 0
-15 29 58 0
-16 -19 86 0
-16 -49 -50 0
17 23 39 0
17 40 -42 0
17 44 -71 0
17 -44 -77 0
-17 -18 -40 0
18 47 64 0
-18 44 88 0
19 38 81 0
-19 -27 -33 0
-19 -38 81 0
-19 -41 -53 0
-19 -60 83 0
-19 -66 89 0
-19 -68 -86 0
20 -69 -70 0
20 71 -72 0
-20 -21 70 0
-21 69 -88 0
22 -44 77 0
22 -53 -77 0
-22 41 -53 0
-22 -41 -48 0
-22 70 -71 0
23 -30 -33 0
23 47 48 0
-23 -25 -26 0
-23 30 36 0
-23 -54 -81 0
-23 57 -86 0
-23 -79 84 0
-24 -34 62 0
25 28 33 0
25 32 -34 0
25 36 76 0
25 -65 75 0
26 -28 31 0
29 30 -73 0
-29 37 78 0
-30 58 76 0
-32 -33 -34 0
-33 -35 -59 0
36 -37 63 0
38 -54 72 0
-38 47 -64 0
-39 -54 70 0
40 43 46 0
-40 43 87 0
-40 -43 87 0
-41 53 -72 0
42 46 70 0
45 -55 83 0
-45 48 -83 0
-45 -53 55 0
46 60 70 0
-49 -50 -51 0
-50 66 89 0
-52 -61 -74 0
65 74 82 0
66 67 -90 0
66 86 -90 0
-66 -67 86 0
-66 86 90 0
68 -81 -85 0
-74 -75 76 0
-75 76 -80 0
83 -87 -88 0
1 2 0
1 3 0
1 8 0
1 21 0
1 -32 0
1 46 0
1 59 0
1 -62 0
1 63 0
1 88 0
-1 -3 0
-1 -11 0
-1 -12 0
-1 -24 0
-1 -36 0
-1 -83 0
-1 84 0
2 5 0
2 6 0
-2 -30 0
-2 35 0
-2 -36 0
3 24 0
3 -26 0
3 -27 0
3 -67 0
3 -91 0
-3 35 0
-3 50 0
-3 68 0
-3 85 0
4 7 0
4 -20 0
4 -51 0
4 -52 0
4 -56 0
4 63 0
4 -68 0
4 78 0
4 81 0
4 -84 0
4 91 0
4 -91 0
-4 -23 0
-4 52 0
-4 61 0
-4 82 0
-4 -84 0
5 -52 0
5 -62 0
5 63 0
-5 -30 0
-5 35 0
-5 61 0
6 35 0
6 41 0
6 -62 0
6 -82 0
-6 65 0
-6 -65 0
7 42 0
-7 -42 0
-7 -46 0
-7 -60 0
8 9 0
8 -10 0
8 -46 0
8 64 0
-8 -9 0
-8 31 0
-8 42 0
-8 -64 0
-8 77 0
-8 87 0
-9 -45 0
-9 -46 0
10 -28 0
10 -70 0
-10 -11 0
-10 -12 0
-10 27 0
-10 -34 0
-10 36 0
-10 -59 0
-10 -86 0
-10 -88 0
11 15 0
11 -23 0
11 34 0
11 -73 0
11 -80 0
-11 31 0
-11 -57 0
12 -15 0
12 -31 0
12 34 0
12 -34 0
12 -78 0
12 85 0
-12 -13 0
-12 31 0
-12 -57 0
-12 -58 0
-12 73 0
-12 -82 0
13 -16 0
13 57 0
13 73 0
13 -85 0
-13 -67 0
-13 -85 0
14 31 0
14 -57 0
14 -58 0
14 73 0
14 78 0
14 -78 0
14 79 0
-14 -63 0
-14 79 0
15 -29 0
15 30 0
15 -57 0
15 -58 0
-15 58 0
16 -19 0
16 23 0
16 49 0
16 50 0
16 -89 0
-16 -89 0
17 18 0
17 19 0
-17 -23 0
-17 -44 0
-17 71 0
18 21 0
18 38 0
18 41 0
18 42 0
18 54 0
18 64 0
18 69 0
-18 25 0
-18 -39 0
-18 -41 0
-18 43 0
-18 -55 0
-18 -70 0
-18 81 0
19 32 0
19 -36 0
19 38 0
19 41 0
19 47 0
19 -50 0
19 56 0
19 -65 0
19 81 0
-19 -26 0
-19 -28 0
-19 36 0
-19 -40 0
-19 52 0
-19 -66 0
-19 67 0
-19 -68 0
-19 -69 0
-19 84 0
-19 -84 0
-19 -86 0
-19 89 0
-19 91 0
20 -77 0
-20 72 0
-20 77 0
21 -22 0
21 23 0
21 39 0
21 -70 0
21 -88 0
-21 -54 0
22 71 0
22 72 0
22 -77 0
-22 -55 0
-22 70 0
-22 -71 0
23 28 0
23 42 0
